WARNING: for repeatability, setting FPU to use double precision
============================[ Problem Statistics ]=============================
|                                                                             |
|  Number of variables:       2380624                                         |
|  Number of clauses:        27703472                                         |
|  Parse time:                   4.83 s                                       |
|  Eliminated clauses:         120.91 Mb                                      |
|  Simplification time:        206.66 s                                       |
|                                                                             |
============================[ Search Statistics ]==============================
| Conflicts |          ORIGINAL         |          LEARNT          | Progress |
|           |    Vars  Clauses Literals |    Limit  Clauses Lit/Cl |          |
===============================================================================
|       100 |  788615  9010784 88961458 |  3303954      100     21 | 16.914 % |
|       250 |  788599  9010784 88961458 |  3634349      242    733 | 16.915 % |
|       475 |  788579  9010784 88961458 |  3997784      447    937 | 16.916 % |
|       812 |  788557  9010784 88961458 |  4397562      769   1984 | 16.917 % |
|      1318 |  788532  9010784 88961458 |  4837319     1263   2104 | 16.918 % |
|      2077 |  788410  9009782 88959315 |  5321051     1903   2385 | 16.923 % |
|      3216 |  788161  9009782 88959315 |  5853156     2897   2446 | 16.933 % |
===============================================================================
restarts              : 25
conflicts             : 4653           (19 /sec)
decisions             : 2589667        (0.00 % random) (10769 /sec)
propagations          : 182401620      (758526 /sec)
conflict literals     : 8484396        (19.73 % deleted)
Memory used           : 4906.00 MB
CPU time              : 240.468 s

UNSATISFIABLE
MiniSat a returnat un cod de eroare 20 pentru fișierul 1e0da402100982e53001a64281149dd9-linked_list_swap_contents_safety_unwind63.cnf.
